18
Isophthalic acid (IPA), 1,3-benzenedicarboxylic acid, planar: center at the origin
O          3.05102       -1.74521        0.00000
C          2.48678       -0.51836        0.00000
O          3.14232        0.49014        0.00000
C          0.99777       -0.56052        0.00000
C          0.28330       -1.75316        0.00000
C         -1.10380       -1.72312        0.00000
C         -1.77540       -0.51274        0.00000
C         -1.05798        0.68054        0.00000
C         -1.82985        1.95579        0.00000
O         -1.04912        3.05329        0.00000
O         -3.03252        2.01604        0.00000
C          0.32814        0.65622        0.00000
H          4.00524       -1.60595        0.00000
H          0.80538       -2.69686        0.00000
H         -1.65800       -2.64915        0.00000
H         -2.85440       -0.46837        0.00000
H         -1.64170        3.81385        0.00000
H          0.90283        1.56758        0.00000
