18
Phthalic acid (PA), 1,2-benzenedicarboxylic acid, planar: center at the origin
O          2.75686        0.24430        0.00000
C          1.94510       -0.81614        0.00000
O          2.39305       -1.93853        0.00000
C          0.45606       -0.55028        0.00000
C         -0.25328       -1.75491        0.00000
C         -1.63284       -1.81683        0.00000
C         -2.35696       -0.64168        0.00000
C         -1.68142        0.56275        0.00000
C         -0.28648        0.65477        0.00000
C          0.14550        2.10435        0.00000
O          1.45768        2.35269        0.00000
O         -0.65567        3.00911        0.00000
H          3.64959       -0.12251        0.00000
H          0.32703       -2.66338        0.00000
H         -2.12724       -2.77640        0.00000
H         -3.43637       -0.65189        0.00000
H         -2.23200        1.48955        0.00000
H          1.53139        3.31502        0.00000
